c cksystemsgroup.github.io/unicorn
c CNF contains a total of 942 clauses.
c CNF contains a total of 239 variables.
c CNF clauses cover 1 bad states.
c Variable name mapping (33 names):
c   1: remainder[bit=0]
c   3: remainder[bit=1]
c   5: remainder[bit=2]
c   7: remainder[bit=3]
c   10: remainder[bit=4]
c   12: remainder[bit=5]
c   14: remainder[bit=6]
c   16: remainder[bit=7]
c   18: ?
c   19: input[bit=4]
c   20: quotient[bit=4]
c   21: input[bit=0]
c   23: quotient[bit=3]
c   24: input[bit=1]
c   27: quotient[bit=2]
c   30: quotient[bit=1]
c   33: quotient[bit=0]
c   40: input[bit=2]
c   50: input[bit=3]
c   57: input[bit=4]
c   75: quotient[bit=7]
c   77: quotient[bit=6]
c   80: quotient[bit=5]
c   117: input[bit=5]
c   127: input[bit=6]
c   135: input[bit=7]
c   140: input[bit=6]
c   154: input[bit=0]
c   162: input[bit=7]
c   169: input[bit=3]
c   178: input[bit=1]
c   185: input[bit=5]
c   233: input[bit=2]
p cnf 239 942
-1 -2 0
1 2 0
-2 -3 4 0
2 -4 0
3 -4 0
-4 -5 6 0
4 -6 0
5 -6 0
-7 -8 0
7 8 0
-6 -8 9 0
6 -9 0
8 -9 0
-9 -10 11 0
9 -11 0
10 -11 0
-11 -12 13 0
11 -13 0
12 -13 0
-13 -14 15 0
13 -15 0
14 -15 0
-16 -17 0
16 17 0
-15 -17 18 0
15 -18 0
17 -18 0
-20 -21 22 0
20 -22 0
21 -22 0
-23 -24 25 0
23 -25 0
24 -25 0
-23 -21 26 0
23 -26 0
21 -26 0
-27 -24 28 0
27 -28 0
24 -28 0
-27 -21 29 0
27 -29 0
21 -29 0
-30 -24 31 0
30 -31 0
24 -31 0
-30 -21 32 0
30 -32 0
21 -32 0
-33 -24 34 0
33 -34 0
24 -34 0
-35 0
32 34 -36 0
32 35 -36 0
-34 -35 36 0
34 35 -36 0
-32 -35 36 0
-32 -34 36 0
29 31 -37 0
29 36 -37 0
-31 -36 37 0
31 36 -37 0
-29 -36 37 0
-29 -31 37 0
26 28 -38 0
26 37 -38 0
-28 -37 38 0
28 37 -38 0
-26 -37 38 0
-26 -28 38 0
22 25 38 -39 0
22 25 -38 39 0
22 -25 38 39 0
22 -25 -38 -39 0
-22 25 38 39 0
-22 25 -38 -39 0
-22 -25 38 -39 0
-22 -25 -38 39 0
-27 -40 41 0
27 -41 0
40 -41 0
26 28 37 -42 0
26 28 -37 42 0
26 -28 37 42 0
26 -28 -37 -42 0
-26 28 37 42 0
-26 28 -37 -42 0
-26 -28 37 -42 0
-26 -28 -37 42 0
-30 -40 43 0
30 -43 0
40 -43 0
29 31 36 -44 0
29 31 -36 44 0
29 -31 36 44 0
29 -31 -36 -44 0
-29 31 36 44 0
-29 31 -36 -44 0
-29 -31 36 -44 0
-29 -31 -36 44 0
-33 -40 45 0
33 -45 0
40 -45 0
-46 0
44 45 -47 0
44 46 -47 0
-45 -46 47 0
45 46 -47 0
-44 -46 47 0
-44 -45 47 0
42 43 -48 0
42 47 -48 0
-43 -47 48 0
43 47 -48 0
-42 -47 48 0
-42 -43 48 0
39 41 48 -49 0
39 41 -48 49 0
39 -41 48 49 0
39 -41 -48 -49 0
-39 41 48 49 0
-39 41 -48 -49 0
-39 -41 48 -49 0
-39 -41 -48 49 0
-30 -50 51 0
30 -51 0
50 -51 0
42 43 47 -52 0
42 43 -47 52 0
42 -43 47 52 0
42 -43 -47 -52 0
-42 43 47 52 0
-42 43 -47 -52 0
-42 -43 47 -52 0
-42 -43 -47 52 0
-33 -50 53 0
33 -53 0
50 -53 0
-54 0
52 53 -55 0
52 54 -55 0
-53 -54 55 0
53 54 -55 0
-52 -54 55 0
-52 -53 55 0
49 51 55 -56 0
49 51 -55 56 0
49 -51 55 56 0
49 -51 -55 -56 0
-49 51 55 56 0
-49 51 -55 -56 0
-49 -51 55 -56 0
-49 -51 -55 56 0
-33 -57 58 0
33 -58 0
57 -58 0
-59 0
56 58 59 -60 0
56 58 -59 60 0
56 -58 59 60 0
56 -58 -59 -60 0
-56 58 59 60 0
-56 58 -59 -60 0
-56 -58 59 -60 0
-56 -58 -59 60 0
52 53 54 -61 0
52 53 -54 61 0
52 -53 54 61 0
52 -53 -54 -61 0
-52 53 54 61 0
-52 53 -54 -61 0
-52 -53 54 -61 0
-52 -53 -54 61 0
44 45 46 -62 0
44 45 -46 62 0
44 -45 46 62 0
44 -45 -46 -62 0
-44 45 46 62 0
-44 45 -46 -62 0
-44 -45 46 -62 0
-44 -45 -46 62 0
32 34 35 -63 0
32 34 -35 63 0
32 -34 35 63 0
32 -34 -35 -63 0
-32 34 35 63 0
-32 34 -35 -63 0
-32 -34 35 -63 0
-32 -34 -35 63 0
-33 -21 64 0
33 -64 0
21 -64 0
-64 -1 65 0
64 -65 0
1 -65 0
63 3 -66 0
63 65 -66 0
-3 -65 66 0
3 65 -66 0
-63 -65 66 0
-63 -3 66 0
62 5 -67 0
62 66 -67 0
-5 -66 67 0
5 66 -67 0
-62 -66 67 0
-62 -5 67 0
61 7 -68 0
61 67 -68 0
-7 -67 68 0
7 67 -68 0
-61 -67 68 0
-61 -7 68 0
60 10 68 -69 0
60 10 -68 69 0
60 -10 68 69 0
60 -10 -68 -69 0
-60 10 68 69 0
-60 10 -68 -69 0
-60 -10 68 -69 0
-60 -10 -68 69 0
-19 -69 -70 0
19 70 0
69 70 0
-19 -71 0
19 71 0
-69 -72 0
69 72 0
-71 -72 -73 0
71 73 0
72 73 0
-70 -73 -74 0
70 74 0
73 74 0
74 0
-75 -21 76 0
75 -76 0
21 -76 0
-77 -24 78 0
77 -78 0
24 -78 0
-77 -21 79 0
77 -79 0
21 -79 0
-80 -24 81 0
80 -81 0
24 -81 0
-80 -21 82 0
80 -82 0
21 -82 0
-20 -24 83 0
20 -83 0
24 -83 0
22 25 -84 0
22 38 -84 0
-25 -38 84 0
25 38 -84 0
-22 -38 84 0
-22 -25 84 0
82 83 -85 0
82 84 -85 0
-83 -84 85 0
83 84 -85 0
-82 -84 85 0
-82 -83 85 0
79 81 -86 0
79 85 -86 0
-81 -85 86 0
81 85 -86 0
-79 -85 86 0
-79 -81 86 0
76 78 86 -87 0
76 78 -86 87 0
76 -78 86 87 0
76 -78 -86 -87 0
-76 78 86 87 0
-76 78 -86 -87 0
-76 -78 86 -87 0
-76 -78 -86 87 0
-80 -40 88 0
80 -88 0
40 -88 0
79 81 85 -89 0
79 81 -85 89 0
79 -81 85 89 0
79 -81 -85 -89 0
-79 81 85 89 0
-79 81 -85 -89 0
-79 -81 85 -89 0
-79 -81 -85 89 0
-20 -40 90 0
20 -90 0
40 -90 0
82 83 84 -91 0
82 83 -84 91 0
82 -83 84 91 0
82 -83 -84 -91 0
-82 83 84 91 0
-82 83 -84 -91 0
-82 -83 84 -91 0
-82 -83 -84 91 0
-23 -40 92 0
23 -92 0
40 -92 0
39 41 -93 0
39 48 -93 0
-41 -48 93 0
41 48 -93 0
-39 -48 93 0
-39 -41 93 0
91 92 -94 0
91 93 -94 0
-92 -93 94 0
92 93 -94 0
-91 -93 94 0
-91 -92 94 0
89 90 -95 0
89 94 -95 0
-90 -94 95 0
90 94 -95 0
-89 -94 95 0
-89 -90 95 0
87 88 95 -96 0
87 88 -95 96 0
87 -88 95 96 0
87 -88 -95 -96 0
-87 88 95 96 0
-87 88 -95 -96 0
-87 -88 95 -96 0
-87 -88 -95 96 0
-20 -50 97 0
20 -97 0
50 -97 0
89 90 94 -98 0
89 90 -94 98 0
89 -90 94 98 0
89 -90 -94 -98 0
-89 90 94 98 0
-89 90 -94 -98 0
-89 -90 94 -98 0
-89 -90 -94 98 0
-23 -50 99 0
23 -99 0
50 -99 0
91 92 93 -100 0
91 92 -93 100 0
91 -92 93 100 0
91 -92 -93 -100 0
-91 92 93 100 0
-91 92 -93 -100 0
-91 -92 93 -100 0
-91 -92 -93 100 0
-27 -50 101 0
27 -101 0
50 -101 0
49 51 -102 0
49 55 -102 0
-51 -55 102 0
51 55 -102 0
-49 -55 102 0
-49 -51 102 0
100 101 -103 0
100 102 -103 0
-101 -102 103 0
101 102 -103 0
-100 -102 103 0
-100 -101 103 0
98 99 -104 0
98 103 -104 0
-99 -103 104 0
99 103 -104 0
-98 -103 104 0
-98 -99 104 0
96 97 -105 0
96 104 -105 0
-97 -104 105 0
97 104 -105 0
-96 -104 105 0
-96 -97 105 0
-105 0
87 88 -106 0
87 95 -106 0
-88 -95 106 0
88 95 -106 0
-87 -95 106 0
-87 -88 106 0
-106 0
96 97 104 -107 0
96 97 -104 107 0
96 -97 104 107 0
96 -97 -104 -107 0
-96 97 104 107 0
-96 97 -104 -107 0
-96 -97 104 -107 0
-96 -97 -104 107 0
-23 -57 108 0
23 -108 0
57 -108 0
98 99 103 -109 0
98 99 -103 109 0
98 -99 103 109 0
98 -99 -103 -109 0
-98 99 103 109 0
-98 99 -103 -109 0
-98 -99 103 -109 0
-98 -99 -103 109 0
-27 -57 110 0
27 -110 0
57 -110 0
100 101 102 -111 0
100 101 -102 111 0
100 -101 102 111 0
100 -101 -102 -111 0
-100 101 102 111 0
-100 101 -102 -111 0
-100 -101 102 -111 0
-100 -101 -102 111 0
-30 -57 112 0
30 -112 0
57 -112 0
56 58 -113 0
56 59 -113 0
-58 -59 113 0
58 59 -113 0
-56 -59 113 0
-56 -58 113 0
111 112 -114 0
111 113 -114 0
-112 -113 114 0
112 113 -114 0
-111 -113 114 0
-111 -112 114 0
109 110 -115 0
109 114 -115 0
-110 -114 115 0
110 114 -115 0
-109 -114 115 0
-109 -110 115 0
107 108 115 -116 0
107 108 -115 116 0
107 -108 115 116 0
107 -108 -115 -116 0
-107 108 115 116 0
-107 108 -115 -116 0
-107 -108 115 -116 0
-107 -108 -115 116 0
-27 -117 118 0
27 -118 0
117 -118 0
109 110 114 -119 0
109 110 -114 119 0
109 -110 114 119 0
109 -110 -114 -119 0
-109 110 114 119 0
-109 110 -114 -119 0
-109 -110 114 -119 0
-109 -110 -114 119 0
-30 -117 120 0
30 -120 0
117 -120 0
111 112 113 -121 0
111 112 -113 121 0
111 -112 113 121 0
111 -112 -113 -121 0
-111 112 113 121 0
-111 112 -113 -121 0
-111 -112 113 -121 0
-111 -112 -113 121 0
-33 -117 122 0
33 -122 0
117 -122 0
-123 0
121 122 -124 0
121 123 -124 0
-122 -123 124 0
122 123 -124 0
-121 -123 124 0
-121 -122 124 0
119 120 -125 0
119 124 -125 0
-120 -124 125 0
120 124 -125 0
-119 -124 125 0
-119 -120 125 0
116 118 125 -126 0
116 118 -125 126 0
116 -118 125 126 0
116 -118 -125 -126 0
-116 118 125 126 0
-116 118 -125 -126 0
-116 -118 125 -126 0
-116 -118 -125 126 0
-30 -127 128 0
30 -128 0
127 -128 0
119 120 124 -129 0
119 120 -124 129 0
119 -120 124 129 0
119 -120 -124 -129 0
-119 120 124 129 0
-119 120 -124 -129 0
-119 -120 124 -129 0
-119 -120 -124 129 0
-33 -127 130 0
33 -130 0
127 -130 0
-131 0
129 130 -132 0
129 131 -132 0
-130 -131 132 0
130 131 -132 0
-129 -131 132 0
-129 -130 132 0
126 128 -133 0
126 132 -133 0
-128 -132 133 0
128 132 -133 0
-126 -132 133 0
-126 -128 133 0
-133 0
126 128 132 -134 0
126 128 -132 134 0
126 -128 132 134 0
126 -128 -132 -134 0
-126 128 132 134 0
-126 128 -132 -134 0
-126 -128 132 -134 0
-126 -128 -132 134 0
-33 -135 136 0
33 -136 0
135 -136 0
-137 0
134 136 -138 0
134 137 -138 0
-136 -137 138 0
136 137 -138 0
-134 -137 138 0
-134 -136 138 0
-138 0
76 78 -139 0
76 86 -139 0
-78 -86 139 0
78 86 -139 0
-76 -86 139 0
-76 -78 139 0
-139 0
129 130 131 -141 0
129 130 -131 141 0
129 -130 131 141 0
129 -130 -131 -141 0
-129 130 131 141 0
-129 130 -131 -141 0
-129 -130 131 -141 0
-129 -130 -131 141 0
121 122 123 -142 0
121 122 -123 142 0
121 -122 123 142 0
121 -122 -123 -142 0
-121 122 123 142 0
-121 122 -123 -142 0
-121 -122 123 -142 0
-121 -122 -123 142 0
60 10 -143 0
60 68 -143 0
-10 -68 143 0
10 68 -143 0
-60 -68 143 0
-60 -10 143 0
142 12 -144 0
142 143 -144 0
-12 -143 144 0
12 143 -144 0
-142 -143 144 0
-142 -12 144 0
141 14 144 -145 0
141 14 -144 145 0
141 -14 144 145 0
141 -14 -144 -145 0
-141 14 144 145 0
-141 14 -144 -145 0
-141 -14 144 -145 0
-141 -14 -144 145 0
-140 -145 -146 0
140 146 0
145 146 0
-140 -147 0
140 147 0
-145 -148 0
145 148 0
-147 -148 -149 0
147 149 0
148 149 0
-146 -149 -150 0
146 150 0
149 150 0
150 0
134 136 137 -151 0
134 136 -137 151 0
134 -136 137 151 0
134 -136 -137 -151 0
-134 136 137 151 0
-134 136 -137 -151 0
-134 -136 137 -151 0
-134 -136 -137 151 0
141 14 -152 0
141 144 -152 0
-14 -144 152 0
14 144 -152 0
-141 -144 152 0
-141 -14 152 0
151 16 -153 0
151 152 -153 0
-16 -152 153 0
16 152 -153 0
-151 -152 153 0
-151 -16 153 0
-153 0
64 1 -155 0
64 -1 155 0
-64 1 155 0
-64 -1 -155 0
-154 -155 -156 0
154 156 0
155 156 0
-154 -157 0
154 157 0
-155 -158 0
155 158 0
-157 -158 -159 0
157 159 0
158 159 0
-156 -159 -160 0
156 160 0
159 160 0
160 0
107 108 -161 0
107 115 -161 0
-108 -115 161 0
108 115 -161 0
-107 -115 161 0
-107 -108 161 0
-161 0
151 16 152 -163 0
151 16 -152 163 0
151 -16 152 163 0
151 -16 -152 -163 0
-151 16 152 163 0
-151 16 -152 -163 0
-151 -16 152 -163 0
-151 -16 -152 163 0
-162 -163 -164 0
162 164 0
163 164 0
-162 -165 0
162 165 0
-163 -166 0
163 166 0
-165 -166 -167 0
165 167 0
166 167 0
-164 -167 -168 0
164 168 0
167 168 0
168 0
61 7 67 -170 0
61 7 -67 170 0
61 -7 67 170 0
61 -7 -67 -170 0
-61 7 67 170 0
-61 7 -67 -170 0
-61 -7 67 -170 0
-61 -7 -67 170 0
-169 -170 -171 0
169 171 0
170 171 0
-169 -172 0
169 172 0
-170 -173 0
170 173 0
-172 -173 -174 0
172 174 0
173 174 0
-171 -174 -175 0
171 175 0
174 175 0
175 0
-176 0
-176 0
116 118 -177 0
116 125 -177 0
-118 -125 177 0
118 125 -177 0
-116 -125 177 0
-116 -118 177 0
-177 0
63 3 65 -179 0
63 3 -65 179 0
63 -3 65 179 0
63 -3 -65 -179 0
-63 3 65 179 0
-63 3 -65 -179 0
-63 -3 65 -179 0
-63 -3 -65 179 0
-178 -179 -180 0
178 180 0
179 180 0
-178 -181 0
178 181 0
-179 -182 0
179 182 0
-181 -182 -183 0
181 183 0
182 183 0
-180 -183 -184 0
180 184 0
183 184 0
184 0
142 12 143 -186 0
142 12 -143 186 0
142 -12 143 186 0
142 -12 -143 -186 0
-142 12 143 186 0
-142 12 -143 -186 0
-142 -12 143 -186 0
-142 -12 -143 186 0
-185 -186 -187 0
185 187 0
186 187 0
-185 -188 0
185 188 0
-186 -189 0
186 189 0
-188 -189 -190 0
188 190 0
189 190 0
-187 -190 -191 0
187 191 0
190 191 0
191 0
-192 0
-135 -193 0
135 193 0
-194 0
-127 -195 0
127 195 0
-196 0
-117 -197 0
117 197 0
-198 0
-57 -199 0
57 199 0
-200 0
-50 -201 0
50 201 0
-202 0
-40 -203 0
40 203 0
-204 0
-24 -205 0
24 205 0
-206 0
-21 -207 0
21 207 0
205 206 -208 0
205 207 -208 0
-206 -207 208 0
206 207 -208 0
-205 -207 208 0
-205 -206 208 0
203 204 -209 0
203 208 -209 0
-204 -208 209 0
204 208 -209 0
-203 -208 209 0
-203 -204 209 0
201 202 -210 0
201 209 -210 0
-202 -209 210 0
202 209 -210 0
-201 -209 210 0
-201 -202 210 0
199 200 -211 0
199 210 -211 0
-200 -210 211 0
200 210 -211 0
-199 -210 211 0
-199 -200 211 0
197 198 -212 0
197 211 -212 0
-198 -211 212 0
198 211 -212 0
-197 -211 212 0
-197 -198 212 0
195 196 -213 0
195 212 -213 0
-196 -212 213 0
196 212 -213 0
-195 -212 213 0
-195 -196 213 0
193 194 -214 0
193 213 -214 0
-194 -213 214 0
194 213 -214 0
-193 -213 214 0
-193 -194 214 0
-214 -215 0
214 215 0
193 194 213 -216 0
193 194 -213 216 0
193 -194 213 216 0
193 -194 -213 -216 0
-193 194 213 216 0
-193 194 -213 -216 0
-193 -194 213 -216 0
-193 -194 -213 216 0
195 196 212 -217 0
195 196 -212 217 0
195 -196 212 217 0
195 -196 -212 -217 0
-195 196 212 217 0
-195 196 -212 -217 0
-195 -196 212 -217 0
-195 -196 -212 217 0
197 198 211 -218 0
197 198 -211 218 0
197 -198 211 218 0
197 -198 -211 -218 0
-197 198 211 218 0
-197 198 -211 -218 0
-197 -198 211 -218 0
-197 -198 -211 218 0
199 200 210 -219 0
199 200 -210 219 0
199 -200 210 219 0
199 -200 -210 -219 0
-199 200 210 219 0
-199 200 -210 -219 0
-199 -200 210 -219 0
-199 -200 -210 219 0
201 202 209 -220 0
201 202 -209 220 0
201 -202 209 220 0
201 -202 -209 -220 0
-201 202 209 220 0
-201 202 -209 -220 0
-201 -202 209 -220 0
-201 -202 -209 220 0
203 204 208 -221 0
203 204 -208 221 0
203 -204 208 221 0
203 -204 -208 -221 0
-203 204 208 221 0
-203 204 -208 -221 0
-203 -204 208 -221 0
-203 -204 -208 221 0
205 206 207 -222 0
205 206 -207 222 0
205 -206 207 222 0
205 -206 -207 -222 0
-205 206 207 222 0
-205 206 -207 -222 0
-205 -206 207 -222 0
-205 -206 -207 222 0
-207 -223 0
207 223 0
-1 -223 224 0
1 -224 0
223 -224 0
3 222 -225 0
3 224 -225 0
-222 -224 225 0
222 224 -225 0
-3 -224 225 0
-3 -222 225 0
5 221 -226 0
5 225 -226 0
-221 -225 226 0
221 225 -226 0
-5 -225 226 0
-5 -221 226 0
7 220 -227 0
7 226 -227 0
-220 -226 227 0
220 226 -227 0
-7 -226 227 0
-7 -220 227 0
10 219 -228 0
10 227 -228 0
-219 -227 228 0
219 227 -228 0
-10 -227 228 0
-10 -219 228 0
12 218 -229 0
12 228 -229 0
-218 -228 229 0
218 228 -229 0
-12 -228 229 0
-12 -218 229 0
14 217 -230 0
14 229 -230 0
-217 -229 230 0
217 229 -230 0
-14 -229 230 0
-14 -217 230 0
16 216 -231 0
16 230 -231 0
-216 -230 231 0
216 230 -231 0
-16 -230 231 0
-16 -216 231 0
192 215 231 -232 0
192 215 -231 232 0
192 -215 231 232 0
192 -215 -231 -232 0
-192 215 231 232 0
-192 215 -231 -232 0
-192 -215 231 -232 0
-192 -215 -231 232 0
232 0
62 5 66 -234 0
62 5 -66 234 0
62 -5 66 234 0
62 -5 -66 -234 0
-62 5 66 234 0
-62 5 -66 -234 0
-62 -5 66 -234 0
-62 -5 -66 234 0
-233 -234 -235 0
233 235 0
234 235 0
-233 -236 0
233 236 0
-234 -237 0
234 237 0
-236 -237 -238 0
236 238 0
237 238 0
-235 -238 -239 0
235 239 0
238 239 0
239 0
18 0
